Normalized Data/p04_7090_tsplib0_normalized_splitx10_0.vrp
NAME:p04_7090_tsplib0_NORMALIZED_splitx10_
BEST_KNOWN: 0
COMMENT: 0
DIMENSION: 986
CAPACITY: 1000
EDGE_WEIGHT_FORMAT: FUNCTION
EDGE_WEIGHT_TYPE: EXACT_2D
NODE_COORD_SECTION
1 0.00000 0.00000
2 2 17
3 2 17
4 2 17
5 2 17
6 2 17
7 2 17
8 2 17
9 14 14
10 14 14
11 14 14
12 14 14
13 14 14
14 14 14
15 14 14
16 17 29
17 17 29
18 17 29
19 17 29
20 17 29
21 17 29
22 17 29
23 17 29
24 -15 -9
25 -15 -9
26 -15 -9
27 -15 -9
28 -15 -9
29 5 -5
30 5 -5
31 5 -5
32 5 -5
33 5 -5
34 5 -5
35 5 -5
36 5 -5
37 -14 12
38 -14 12
39 -14 12
40 -14 12
41 -14 12
42 -14 12
43 -14 12
44 -18 28
45 -18 28
46 -18 28
47 -18 28
48 -18 28
49 -18 28
50 -18 28
51 -18 28
52 -18 28
53 -4 27
54 -4 27
55 -4 27
56 -4 27
57 -4 27
58 -4 27
59 17 -2
60 17 -2
61 17 -2
62 17 -2
63 17 -2
64 17 -2
65 17 -2
66 17 -2
67 16 -14
68 16 -14
69 16 -14
70 16 -14
71 7 6
72 7 6
73 7 6
74 7 6
75 7 6
76 7 6
77 -4 -3
78 -4 -3
79 -4 -3
80 -4 -3
81 -4 -3
82 -4 -3
83 -4 -3
84 -30 -10
85 -30 -10
86 -30 -10
87 -30 -10
88 -30 -10
89 -30 -10
90 -30 -10
91 -30 -10
92 -30 -10
93 -23 7
94 -23 7
95 -23 7
96 -23 7
97 1 -19
98 1 -19
99 1 -19
100 1 -19
101 1 -19
102 1 -19
103 1 -19
104 1 -19
105 17 6
106 17 6
107 17 6
108 17 6
109 17 6
110 -8 -12
111 -8 -12
112 -8 -12
113 -8 -12
114 -8 -12
115 -18 -2
116 -18 -2
117 -18 -2
118 -18 -2
119 -22 -22
120 -22 -22
121 -22 -22
122 -22 -22
123 -22 -22
124 -22 -22
125 -22 -22
126 22 23
127 22 23
128 22 23
129 22 23
130 27 7
131 27 7
132 27 7
133 27 7
134 27 7
135 27 7
136 7 22
137 7 22
138 7 22
139 7 22
140 7 22
141 7 22
142 -19 22
143 -19 22
144 -19 22
145 -19 22
146 -19 22
147 -19 22
148 -19 22
149 -27 17
150 -27 17
151 -27 17
152 -27 17
153 -27 17
154 -28 3
155 -28 3
156 -28 3
157 -28 3
158 -28 3
159 -8 33
160 -8 33
161 -8 33
162 -8 33
163 -8 33
164 -8 33
165 -8 33
166 -8 33
167 -5 13
168 -5 13
169 -5 13
170 -5 13
171 8 32
172 8 32
173 8 32
174 8 32
175 8 32
176 23 13
177 23 13
178 23 13
179 23 13
180 23 13
181 23 13
182 23 13
183 23 -8
184 23 -8
185 23 -8
186 23 -8
187 23 -8
188 23 -8
189 2 34
190 2 34
191 2 34
192 2 34
193 2 34
194 2 34
195 2 34
196 3 11
197 3 11
198 3 11
199 3 11
200 3 11
201 3 11
202 11 -25
203 11 -25
204 11 -25
205 11 -25
206 11 -25
207 11 -25
208 26 -2
209 26 -2
210 26 -2
211 26 -2
212 26 -2
213 26 -2
214 26 -2
215 26 -2
216 27 28
217 27 28
218 27 28
219 27 28
220 27 28
221 27 28
222 28 34
223 28 34
224 28 34
225 28 34
226 28 34
227 28 34
228 28 34
229 28 34
230 28 34
231 -3 -13
232 -3 -13
233 -3 -13
234 -3 -13
235 -3 -13
236 10 0
237 10 0
238 10 0
239 10 0
240 10 0
241 10 0
242 10 0
243 10 0
244 10 0
245 24 -20
246 24 -20
247 24 -20
248 24 -20
249 24 -20
250 24 -20
251 24 -20
252 24 -20
253 24 -20
254 -30 -29
255 -30 -29
256 -30 -29
257 -30 -29
258 -30 -29
259 -30 -29
260 -25 -18
261 -25 -18
262 -25 -18
263 -25 -18
264 -25 -18
265 -25 -18
266 -25 -18
267 -14 -25
268 -14 -25
269 -14 -25
270 -14 -25
271 -14 -25
272 -30 29
273 -30 29
274 -30 29
275 -30 29
276 -30 29
277 -30 29
278 -5 -20
279 -5 -20
280 -5 -20
281 -5 -20
282 -5 -20
283 -5 -20
284 -5 -20
285 4 -25
286 4 -25
287 4 -25
288 4 -25
289 4 -25
290 4 -25
291 4 -25
292 -3 4
293 -3 4
294 -3 4
295 -3 4
296 -3 4
297 -10 -3
298 -10 -3
299 -10 -3
300 -10 -3
301 -10 -3
302 -10 -3
303 -10 -3
304 -10 -3
305 -10 -3
306 -10 20
307 -10 20
308 -10 20
309 -10 20
310 -10 20
311 -10 20
312 -10 20
313 -10 20
314 13 -7
315 13 -7
316 13 -7
317 13 -7
318 13 -7
319 13 -7
320 21 2
321 21 2
322 21 2
323 21 2
324 21 2
325 21 2
326 6 14
327 6 14
328 6 14
329 6 14
330 6 14
331 6 14
332 6 14
333 0 -18
334 0 -18
335 0 -18
336 0 -18
337 0 -18
338 0 -18
339 0 -18
340 20 10
341 20 10
342 20 10
343 20 10
344 20 10
345 20 -15
346 20 -15
347 20 -15
348 20 -15
349 20 -15
350 20 -15
351 20 -15
352 20 -15
353 -20 -5
354 -20 -5
355 -20 -5
356 -20 -5
357 -20 -5
358 -20 -5
359 -20 -5
360 -20 -5
361 -10 -5
362 -10 -5
363 -10 -5
364 -10 -5
365 -10 -5
366 -10 -5
367 -10 -5
368 -10 -5
369 -15 15
370 -15 15
371 -15 15
372 -15 15
373 -15 15
374 -15 15
375 -25 8
376 -25 8
377 -25 8
378 -25 8
379 -25 8
380 -25 8
381 -25 8
382 -25 8
383 20 25
384 20 25
385 20 25
386 20 25
387 20 25
388 20 25
389 20 25
390 20 25
391 -5 25
392 -5 25
393 -5 25
394 -5 25
395 -5 25
396 -5 25
397 -15 30
398 -15 30
399 -15 30
400 -15 30
401 -15 30
402 -15 30
403 -15 30
404 15 0
405 15 0
406 15 0
407 15 0
408 15 0
409 -5 -10
410 -5 -10
411 -5 -10
412 -5 -10
413 -5 -10
414 -5 -10
415 -20 -25
416 -20 -25
417 -20 -25
418 -20 -25
419 -20 -25
420 -5 -30
421 -5 -30
422 -5 -30
423 -5 -30
424 -5 -30
425 -5 -30
426 -5 -30
427 -25 -15
428 -25 -15
429 -25 -15
430 -25 -15
431 -25 -15
432 -25 -15
433 -25 -15
434 -25 -15
435 -25 -15
436 -30 -5
437 -30 -5
438 -30 -5
439 -30 -5
440 -30 -5
441 -30 -5
442 -30 -5
443 -15 5
444 -15 5
445 -15 5
446 -15 5
447 -15 5
448 -20 25
449 -20 25
450 -20 25
451 -20 25
452 -20 25
453 -20 25
454 -20 25
455 -20 25
456 -20 25
457 10 30
458 10 30
459 10 30
460 10 30
461 10 30
462 10 30
463 10 30
464 10 -15
465 10 -15
466 10 -15
467 10 -15
468 10 -15
469 10 -15
470 10 -15
471 10 -15
472 10 -25
473 10 -25
474 10 -25
475 10 -25
476 10 -25
477 10 -25
478 10 -25
479 20 -30
480 20 -30
481 20 -30
482 20 -30
483 20 -30
484 20 -30
485 30 0
486 30 0
487 30 0
488 30 0
489 30 0
490 30 0
491 30 0
492 30 0
493 30 0
494 30 -15
495 30 -15
496 30 -15
497 30 -15
498 30 -15
499 10 -5
500 10 -5
501 10 -5
502 10 -5
503 10 -5
504 10 -5
505 0 5
506 0 5
507 0 5
508 0 5
509 0 5
510 6 2
511 6 2
512 6 2
513 6 2
514 6 2
515 6 2
516 6 2
517 6 2
518 29 7
519 29 7
520 29 7
521 29 7
522 29 7
523 5 25
524 5 25
525 5 25
526 5 25
527 5 25
528 5 25
529 -4 17
530 -4 17
531 -4 17
532 -4 17
533 -4 17
534 -4 17
535 -4 17
536 0 34
537 0 34
538 0 34
539 0 34
540 0 34
541 18 17
542 18 17
543 18 17
544 18 17
545 18 17
546 18 17
547 18 17
548 30 20
549 30 20
550 30 20
551 30 20
552 30 20
553 30 20
554 28 30
555 28 30
556 28 30
557 28 30
558 28 30
559 28 30
560 28 30
561 28 30
562 28 30
563 -33 25
564 -33 25
565 -33 25
566 -33 25
567 -33 25
568 -15 -15
569 -15 -15
570 -15 -15
571 -15 -15
572 -15 -15
573 -15 -15
574 -15 -15
575 -15 -15
576 -15 -15
577 -30 -30
578 -30 -30
579 -30 -30
580 -30 -30
581 -30 -30
582 -30 -30
583 25 -23
584 25 -23
585 25 -23
586 25 -23
587 25 -23
588 25 -23
589 25 -23
590 5 -10
591 5 -10
592 5 -10
593 5 -10
594 5 -10
595 5 -10
596 7 -28
597 7 -28
598 7 -28
599 7 -28
600 7 -28
601 7 -28
602 -11 -23
603 -11 -23
604 -11 -23
605 -11 -23
606 -11 -23
607 -12 -32
608 -12 -32
609 -12 -32
610 -12 -32
611 -12 -32
612 -12 -32
613 -12 -32
614 -24 -21
615 -24 -21
616 -24 -21
617 -24 -21
618 -24 -21
619 -24 -21
620 -24 -21
621 -24 -21
622 -29 3
623 -29 3
624 -29 3
625 -29 3
626 -29 3
627 -29 3
628 -29 3
629 -33 13
630 -33 13
631 -33 13
632 -33 13
633 -33 13
634 -27 21
635 -27 21
636 -27 21
637 -27 21
638 -27 21
639 -22 17
640 -22 17
641 -22 17
642 -22 17
643 -22 17
644 -22 17
645 -22 17
646 -22 17
647 -29 33
648 -29 33
649 -29 33
650 -29 33
651 -29 33
652 12 12
653 12 12
654 12 12
655 12 12
656 12 12
657 12 12
658 14 23
659 14 23
660 14 23
661 14 23
662 14 23
663 14 23
664 14 23
665 -8 8
666 -8 8
667 -8 8
668 -8 8
669 -8 8
670 2 -4
671 2 -4
672 2 -4
673 2 -4
674 2 -4
675 22 -6
676 22 -6
677 22 -6
678 22 -6
679 22 -6
680 22 -6
681 22 -6
682 22 -6
683 22 -6
684 28 -12
685 28 -12
686 28 -12
687 28 -12
688 28 -12
689 28 -12
690 28 -12
691 28 -12
692 18 -23
693 18 -23
694 18 -23
695 18 -23
696 18 -23
697 18 -23
698 18 -23
699 18 -23
700 -3 -23
701 -3 -23
702 -3 -23
703 -3 -23
704 -3 -23
705 1 -9
706 1 -9
707 1 -9
708 1 -9
709 1 -9
710 -14 -11
711 -14 -11
712 -14 -11
713 -14 -11
714 -14 -11
715 -14 -11
716 -18 -1
717 -18 -1
718 -18 -1
719 -18 -1
720 -18 -1
721 -18 -1
722 -18 -1
723 -18 -1
724 -23 -11
725 -23 -11
726 -23 -11
727 -23 -11
728 -23 -11
729 -23 -11
730 -23 -11
731 -23 -11
732 -11 23
733 -11 23
734 -11 23
735 -11 23
736 -11 23
737 -11 23
738 -11 23
739 -8 34
740 -8 34
741 -8 34
742 -8 34
743 -20 42
744 -20 42
745 -20 42
746 -20 42
747 -20 42
748 -20 42
749 27 42
750 27 42
751 27 42
752 27 42
753 27 42
754 27 42
755 27 42
756 14 38
757 14 38
758 14 38
759 14 38
760 14 38
761 14 38
762 14 38
763 32 -30
764 32 -30
765 32 -30
766 32 -30
767 32 -30
768 32 -30
769 32 -30
770 21 4
771 21 4
772 21 4
773 21 4
774 21 4
775 21 4
776 2 12
777 2 12
778 2 12
779 2 12
780 2 12
781 2 21
782 2 21
783 2 21
784 2 21
785 2 21
786 2 21
787 2 21
788 2 21
789 22 33
790 22 33
791 22 33
792 22 33
793 22 33
794 22 33
795 12 -19
796 12 -19
797 12 -19
798 12 -19
799 12 -19
800 12 -19
801 12 -19
802 12 -19
803 12 -19
804 9 -18
805 9 -18
806 9 -18
807 9 -18
808 9 -18
809 11 -22
810 11 -22
811 11 -22
812 11 -22
813 11 -22
814 11 -22
815 11 -22
816 14 -24
817 14 -24
818 14 -24
819 14 -24
820 14 -24
821 14 -24
822 14 -24
823 14 7
824 14 7
825 14 7
826 14 7
827 18 8
828 18 8
829 18 8
830 18 8
831 18 8
832 18 8
833 18 8
834 18 8
835 18 8
836 26 17
837 26 17
838 26 17
839 26 17
840 26 17
841 26 17
842 26 17
843 26 17
844 26 17
845 22 13
846 22 13
847 22 13
848 22 13
849 22 13
850 22 13
851 22 13
852 21 2
853 21 2
854 21 2
855 21 2
856 21 2
857 21 2
858 21 2
859 21 2
860 21 2
861 20 19
862 20 19
863 20 19
864 20 19
865 20 19
866 20 19
867 -20 12
868 -20 12
869 -20 12
870 -20 12
871 -20 12
872 -20 12
873 -21 2
874 -21 2
875 -21 2
876 -21 2
877 -21 2
878 -24 -4
879 -24 -4
880 -24 -4
881 -24 -4
882 -24 -4
883 -24 -4
884 -24 -4
885 -24 -4
886 -19 -13
887 -19 -13
888 -19 -13
889 -19 -13
890 -19 -13
891 -31 -17
892 -31 -17
893 -31 -17
894 -31 -17
895 -31 -17
896 -7 -17
897 -7 -17
898 -7 -17
899 -7 -17
900 -7 -17
901 -9 17
902 -9 17
903 -9 17
904 -9 17
905 -9 17
906 -9 17
907 -9 0
908 -9 0
909 -9 0
910 -9 0
911 -9 0
912 -9 0
913 -4 32
914 -4 32
915 -4 32
916 -4 32
917 -4 32
918 -4 32
919 -4 32
920 -4 32
921 -20 -16
922 -20 -16
923 -20 -16
924 -20 -16
925 -20 -16
926 -13 -13
927 -13 -13
928 -13 -13
929 -13 -13
930 -13 -13
931 -13 -13
932 -17 -11
933 -17 -11
934 -17 -11
935 -17 -11
936 -17 -11
937 -9 -8
938 -9 -8
939 -9 -8
940 -9 -8
941 -9 -8
942 -9 -8
943 -9 -8
944 -10 -11
945 -10 -11
946 -10 -11
947 -10 -11
948 -10 -11
949 -10 -11
950 -10 -11
951 -13 -8
952 -13 -8
953 -13 -8
954 -13 -8
955 -13 -8
956 -13 -8
957 -13 -8
958 -10 -14
959 -10 -14
960 -10 -14
961 -10 -14
962 -10 -14
963 -10 -14
964 -10 -14
965 -10 -14
966 -10 -14
967 -16 -14
968 -16 -14
969 -16 -14
970 -16 -14
971 -16 -14
972 -16 -14
973 -16 -14
974 -16 -14
975 -15 -9
976 -15 -9
977 -15 -9
978 -15 -9
979 -15 -9
980 -17 -17
981 -17 -17
982 -17 -17
983 -17 -17
984 -17 -17
985 -17 -17
986 -17 -17
DEMAND_SECTION
1 0
2 200
3 200
4 200
5 200
6 50
7 10
8 10
9 200
10 200
11 200
12 100
13 50
14 10
15 10
16 200
17 200
18 200
19 100
20 10
21 10
22 10
23 10
24 200
25 200
26 200
27 200
28 10
29 200
30 200
31 200
32 200
33 50
34 10
35 10
36 10
37 200
38 200
39 200
40 200
41 50
42 10
43 10
44 200
45 200
46 200
47 100
48 50
49 10
50 10
51 10
52 10
53 200
54 200
55 200
56 100
57 10
58 10
59 200
60 200
61 200
62 100
63 10
64 10
65 10
66 10
67 200
68 200
69 200
70 100
71 200
72 200
73 200
74 200
75 50
76 10
77 200
78 200
79 200
80 100
81 50
82 10
83 10
84 200
85 200
86 200
87 100
88 50
89 10
90 10
91 10
92 10
93 200
94 200
95 200
96 200
97 200
98 200
99 200
100 200
101 10
102 10
103 10
104 10
105 200
106 200
107 200
108 100
109 50
110 200
111 200
112 200
113 100
114 10
115 200
116 200
117 200
118 200
119 200
120 200
121 200
122 200
123 50
124 10
125 10
126 200
127 200
128 200
129 200
130 200
131 200
132 200
133 100
134 10
135 10
136 200
137 200
138 200
139 200
140 10
141 10
142 200
143 200
144 200
145 200
146 10
147 10
148 10
149 200
150 200
151 200
152 200
153 10
154 200
155 200
156 200
157 200
158 50
159 200
160 200
161 200
162 200
163 10
164 10
165 10
166 10
167 200
168 200
169 200
170 100
171 200
172 200
173 200
174 200
175 50
176 200
177 200
178 200
179 100
180 10
181 10
182 10
183 200
184 200
185 200
186 100
187 10
188 10
189 200
190 200
191 200
192 200
193 50
194 10
195 10
196 200
197 200
198 200
199 200
200 50
201 10
202 200
203 200
204 200
205 200
206 50
207 10
208 200
209 200
210 200
211 100
212 10
213 10
214 10
215 10
216 200
217 200
218 200
219 200
220 50
221 10
222 200
223 200
224 200
225 100
226 50
227 10
228 10
229 10
230 10
231 200
232 200
233 200
234 200
235 50
236 200
237 200
238 200
239 100
240 50
241 10
242 10
243 10
244 10
245 200
246 200
247 200
248 100
249 50
250 10
251 10
252 10
253 10
254 200
255 200
256 200
257 200
258 50
259 10
260 200
261 200
262 200
263 100
264 10
265 10
266 10
267 200
268 200
269 200
270 100
271 10
272 200
273 200
274 200
275 200
276 10
277 10
278 200
279 200
280 200
281 200
282 10
283 10
284 10
285 200
286 200
287 200
288 200
289 50
290 10
291 10
292 200
293 200
294 200
295 100
296 50
297 200
298 200
299 200
300 100
301 50
302 10
303 10
304 10
305 10
306 200
307 200
308 200
309 100
310 50
311 10
312 10
313 10
314 200
315 200
316 200
317 200
318 50
319 10
320 200
321 200
322 200
323 200
324 10
325 10
326 200
327 200
328 200
329 200
330 10
331 10
332 10
333 200
334 200
335 200
336 200
337 10
338 10
339 10
340 200
341 200
342 200
343 100
344 10
345 200
346 200
347 200
348 200
349 50
350 10
351 10
352 10
353 200
354 200
355 200
356 200
357 10
358 10
359 10
360 10
361 200
362 200
363 200
364 200
365 10
366 10
367 10
368 10
369 200
370 200
371 200
372 100
373 50
374 10
375 200
376 200
377 200
378 200
379 10
380 10
381 10
382 10
383 200
384 200
385 200
386 100
387 50
388 10
389 10
390 10
391 200
392 200
393 200
394 100
395 50
396 10
397 200
398 200
399 200
400 200
401 50
402 10
403 10
404 200
405 200
406 200
407 100
408 50
409 200
410 200
411 200
412 100
413 50
414 10
415 200
416 200
417 200
418 100
419 50
420 200
421 200
422 200
423 100
424 50
425 10
426 10
427 200
428 200
429 200
430 100
431 50
432 10
433 10
434 10
435 10
436 200
437 200
438 200
439 200
440 50
441 10
442 10
443 200
444 200
445 200
446 100
447 10
448 200
449 200
450 200
451 200
452 50
453 10
454 10
455 10
456 10
457 200
458 200
459 200
460 200
461 50
462 10
463 10
464 200
465 200
466 200
467 200
468 50
469 10
470 10
471 10
472 200
473 200
474 200
475 200
476 50
477 10
478 10
479 200
480 200
481 200
482 200
483 50
484 10
485 200
486 200
487 200
488 200
489 50
490 10
491 10
492 10
493 10
494 200
495 200
496 200
497 100
498 10
499 200
500 200
501 200
502 100
503 50
504 10
505 200
506 200
507 200
508 200
509 10
510 200
511 200
512 200
513 200
514 10
515 10
516 10
517 10
518 200
519 200
520 200
521 200
522 10
523 200
524 200
525 200
526 200
527 50
528 10
529 200
530 200
531 200
532 200
533 10
534 10
535 10
536 200
537 200
538 200
539 100
540 50
541 200
542 200
543 200
544 200
545 10
546 10
547 10
548 200
549 200
550 200
551 200
552 10
553 10
554 200
555 200
556 200
557 200
558 50
559 10
560 10
561 10
562 10
563 200
564 200
565 200
566 200
567 50
568 200
569 200
570 200
571 200
572 50
573 10
574 10
575 10
576 10
577 200
578 200
579 200
580 200
581 50
582 10
583 200
584 200
585 200
586 200
587 50
588 10
589 10
590 200
591 200
592 200
593 100
594 10
595 10
596 200
597 200
598 200
599 200
600 50
601 10
602 200
603 200
604 200
605 200
606 10
607 200
608 200
609 200
610 100
611 10
612 10
613 10
614 200
615 200
616 200
617 200
618 50
619 10
620 10
621 10
622 200
623 200
624 200
625 200
626 10
627 10
628 10
629 200
630 200
631 200
632 200
633 50
634 200
635 200
636 200
637 200
638 50
639 200
640 200
641 200
642 100
643 50
644 10
645 10
646 10
647 200
648 200
649 200
650 200
651 50
652 200
653 200
654 200
655 100
656 10
657 10
658 200
659 200
660 200
661 200
662 10
663 10
664 10
665 200
666 200
667 200
668 200
669 50
670 200
671 200
672 200
673 200
674 50
675 200
676 200
677 200
678 200
679 50
680 10
681 10
682 10
683 10
684 200
685 200
686 200
687 100
688 50
689 10
690 10
691 10
692 200
693 200
694 200
695 100
696 10
697 10
698 10
699 10
700 200
701 200
702 200
703 100
704 10
705 200
706 200
707 200
708 200
709 10
710 200
711 200
712 200
713 100
714 50
715 10
716 200
717 200
718 200
719 200
720 50
721 10
722 10
723 10
724 200
725 200
726 200
727 200
728 50
729 10
730 10
731 10
732 200
733 200
734 200
735 200
736 10
737 10
738 10
739 200
740 200
741 200
742 100
743 200
744 200
745 200
746 100
747 50
748 10
749 200
750 200
751 200
752 200
753 10
754 10
755 10
756 200
757 200
758 200
759 100
760 50
761 10
762 10
763 200
764 200
765 200
766 100
767 50
768 10
769 10
770 200
771 200
772 200
773 200
774 50
775 10
776 200
777 200
778 200
779 200
780 50
781 200
782 200
783 200
784 200
785 50
786 10
787 10
788 10
789 200
790 200
791 200
792 100
793 50
794 10
795 200
796 200
797 200
798 100
799 50
800 10
801 10
802 10
803 10
804 200
805 200
806 200
807 100
808 10
809 200
810 200
811 200
812 100
813 50
814 10
815 10
816 200
817 200
818 200
819 200
820 10
821 10
822 10
823 200
824 200
825 200
826 200
827 200
828 200
829 200
830 200
831 50
832 10
833 10
834 10
835 10
836 200
837 200
838 200
839 100
840 50
841 10
842 10
843 10
844 10
845 200
846 200
847 200
848 200
849 10
850 10
851 10
852 200
853 200
854 200
855 100
856 50
857 10
858 10
859 10
860 10
861 200
862 200
863 200
864 200
865 10
866 10
867 200
868 200
869 200
870 200
871 10
872 10
873 200
874 200
875 200
876 200
877 50
878 200
879 200
880 200
881 200
882 10
883 10
884 10
885 10
886 200
887 200
888 200
889 200
890 50
891 200
892 200
893 200
894 200
895 10
896 200
897 200
898 200
899 200
900 10
901 200
902 200
903 200
904 100
905 50
906 10
907 200
908 200
909 200
910 100
911 50
912 10
913 200
914 200
915 200
916 200
917 50
918 10
919 10
920 10
921 200
922 200
923 200
924 200
925 10
926 200
927 200
928 200
929 200
930 10
931 10
932 200
933 200
934 200
935 200
936 10
937 200
938 200
939 200
940 100
941 10
942 10
943 10
944 200
945 200
946 200
947 200
948 10
949 10
950 10
951 200
952 200
953 200
954 200
955 10
956 10
957 10
958 200
959 200
960 200
961 200
962 50
963 10
964 10
965 10
966 10
967 200
968 200
969 200
970 100
971 10
972 10
973 10
974 10
975 200
976 200
977 200
978 200
979 10
980 200
981 200
982 200
983 100
984 50
985 10
986 10
DEPOT_SECTION
1
-1
EOF