Normalized Data/p04_7090_tsplib0_normalized_splitx10_0.sol
985 -3 4 1 2 195 -5 6 7 785 783 781 782 780 784 787 786 329 331 330 -8 9 14 654 652 656 653 655 -10 862 863 861 860 -13 11 12 546 545 540 544 543 542 541 -15 16 389 382 388 387 385 386 383 -17 21 789 793 791 790 792 788 -19 20 18 22 753 754 752 751 748 750 749 661 663 662 -23 26 975 950 952 -25 24 976 974 977 -27 978 935 889 728 730 724 727 726 729 725 723 -29 502 500 499 498 501 503 -30 28 31 672 670 -33 32 35 34 315 316 313 318 314 317 -36 39 368 370 369 -37 869 866 868 867 -38 155 154 153 156 -41 40 42 871 870 563 564 562 566 565 637 -49 48 51 43 46 47 45 44 50 449 455 -52 53 54 392 390 -55 57 56 912 914 913 916 917 918 919 915 -60 59 403 404 405 -62 64 210 209 207 208 211 214 212 213 680 674 -63 65 61 58 856 859 324 319 851 322 407 -67 66 68 344 346 -69 582 586 587 588 584 583 349 347 351 -72 70 71 197 198 -74 73 75 516 510 515 509 511 513 -78 76 77 669 671 -81 79 365 363 364 361 362 360 367 366 -82 80 939 942 947 945 948 949 944 946 943 -89 87 88 83 84 91 85 90 86 880 -92 93 95 94 873 -96 284 287 285 286 -98 99 97 335 334 -101 103 102 100 290 289 288 597 595 600 598 599 596 -105 108 104 107 833 831 832 827 826 -106 769 771 770 772 -110 109 111 937 936 -112 113 965 961 957 962 963 959 958 960 964 -114 115 716 715 718 -117 116 872 875 874 -119 579 578 254 253 -127 126 125 658 659 -128 216 215 218 217 -130 129 131 845 844 -133 134 132 521 517 518 519 520 774 773 -135 137 138 657 660 -136 524 522 525 523 -140 139 459 755 758 759 757 761 760 756 -143 141 447 448 450 -145 142 146 144 147 640 644 638 642 641 -151 149 148 152 150 371 372 373 -157 626 625 622 623 627 621 624 876 -160 744 743 746 745 747 742 -165 158 162 161 163 164 159 393 395 394 391 -168 169 167 166 902 904 668 -172 171 173 190 191 -178 181 179 180 551 547 552 548 549 550 842 843 840 -184 187 688 689 683 687 690 685 686 684 -186 182 183 185 677 678 682 675 -192 193 188 741 739 738 740 -194 189 535 537 539 536 538 508 -196 325 326 327 328 -199 200 779 530 533 532 534 529 528 531 -201 203 202 204 809 -229 225 222 221 223 226 228 227 224 384 -232 278 280 277 332 -233 234 230 231 409 411 413 -239 236 237 243 238 235 241 240 514 512 -242 406 486 492 489 484 491 488 487 490 485 -247 252 251 249 248 244 250 246 245 350 345 -259 261 260 920 923 -266 606 608 607 610 611 609 612 605 412 -268 270 269 267 418 414 416 -276 275 272 274 273 271 294 295 -291 293 507 505 506 -292 666 665 667 664 -301 303 298 299 304 302 296 297 300 908 -307 306 305 901 900 -308 309 311 737 731 734 736 735 733 732 -337 338 336 333 703 701 702 700 283 281 282 279 899 -341 340 339 342 343 834 830 828 -348 497 493 496 495 494 676 679 681 -355 354 353 352 938 -357 358 356 359 440 437 441 436 439 438 435 883 882 722 720 -377 379 381 375 380 378 374 376 910 911 909 -398 401 402 397 399 400 396 310 312 905 903 -408 410 895 897 896 -415 417 118 123 121 124 122 120 985 984 -425 421 422 419 423 424 420 699 -431 434 433 432 427 428 430 426 429 922 924 -443 442 444 907 906 -445 446 628 631 629 630 632 643 645 -451 454 453 452 648 646 650 647 649 -456 461 457 462 458 460 174 170 527 526 -466 465 464 463 591 -470 469 468 467 794 799 795 797 810 808 -477 474 471 472 473 475 476 206 205 813 814 812 -480 478 483 481 479 482 811 807 593 -504 775 778 777 776 -561 557 556 555 560 558 554 559 553 220 219 865 864 -567 983 979 981 980 982 929 930 -568 569 570 574 573 572 575 571 969 966 -580 576 581 577 258 256 257 255 620 617 618 619 -585 766 768 762 767 764 763 765 819 820 -590 589 705 704 707 -592 594 815 821 816 817 818 798 801 800 802 -603 601 604 602 898 -613 615 614 616 921 -633 634 636 635 639 -651 825 823 822 824 -673 803 805 804 806 708 706 -698 694 695 693 691 697 692 696 796 -709 925 927 928 926 -712 714 710 711 713 953 951 956 954 955 -717 721 719 881 884 877 878 879 -829 177 176 175 847 -836 838 841 835 837 839 848 846 850 849 -854 853 320 852 323 321 857 855 858 -887 886 888 885 931 -890 892 891 894 893 263 262 264 265 971 972 970 973 940 941 -932 933 934 967 968 0 





OBJ=
6530.105
BEST_KNOWN=
0.000